Maximize
  + Z0
Subject To
 R0: 0.5 X0 + 0.5 X1 - 2 Z1 = 0
 R1: 0.5 X0 - 0.5 X1 - 2 Z2 = 0
 R2: - Z1 + 0.25 Z3 + 0.25 Z4 + 0.25 Z5 + 0.25 Z6 = 0.5
 R3: Z3 - Z7 >= -0
 R4: Z4 - Z7 <= 0
 R5: Z4 - Z8 >= -0
 R6: Z5 - Z8 <= 0
 R7: Z5 - Z9 >= -0
 R8: Z6 - Z9 <= 0
 R9: - Z2 + 0.25 Z10 + 0.25 Z11 + 0.25 Z12 + 0.25 Z13 = 0.5
 R10: Z10 - Z14 >= -0
 R11: Z11 - Z14 <= 0
 R12: Z11 - Z15 >= -0
 R13: Z12 - Z15 <= 0
 R14: Z12 - Z16 >= -0
 R15: Z13 - Z16 <= 0
 R16: - 0.25 Z0 + Z17 - Z18 = 0
 R17: - X0 - X1 + Z0 >= -1
 R18: X0 + X1 + Z0 >= -1
 R19: X0 - X1 + Z0 <= 1
 R20: - X0 + X1 + Z0 <= 1
 R21: - Z1 - Z17 <= 0.25
 R22: Z1 - Z17 <= 0.25
 R23: - 0 Z1 - Z17 <= 0
 R24: - 0.5 Z1 - Z17 <= 0.0625
 R25: 0.5 Z1 - Z17 <= 0.0625
 R26: - 0.75 Z1 - Z17 <= 0.140625
 R27: 0.75 Z1 - Z17 <= 0.140625
 R28: - 0.25 Z1 - Z17 <= 0.015625
 R29: 0.25 Z1 - Z17 <= 0.015625
 R30: - 0.625 Z1 - Z17 <= 0.09765625
 R31: - 0.375 Z1 - Z17 <= 0.03515625
 R32: 0.375 Z1 - Z17 <= 0.03515625
 R33: 0.625 Z1 - Z17 <= 0.09765625
 R34: - 0.875 Z1 - Z17 <= 0.19140625
 R35: - 0.125 Z1 - Z17 <= 0.00390625
 R36: 0.875 Z1 - Z17 <= 0.19140625
 R37: 0.125 Z1 - Z17 <= 0.00390625
 R38: - 0.5625 Z1 - Z17 <= 0.0791015625
 R39: 0.4375 Z1 - Z17 <= 0.0478515625
 R40: 0.8125 Z1 - Z17 <= 0.1650390625
 R41: 0.1875 Z1 - Z17 <= 0.0087890625
 R42: - 0.1875 Z1 - Z17 <= 0.0087890625
 R43: - 0.3125 Z1 - Z17 <= 0.0244140625
 R44: - 0.9375 Z1 - Z17 <= 0.2197265625
 R45: 0.5625 Z1 - Z17 <= 0.0791015625
 R46: 0.3125 Z1 - Z17 <= 0.0244140625
 R47: 0.6875 Z1 - Z17 <= 0.1181640625
 R48: 0.9375 Z1 - Z17 <= 0.2197265625
 R49: - 0.4375 Z1 - Z17 <= 0.0478515625
 R50: - 0.6875 Z1 - Z17 <= 0.1181640625
 R51: - 0.0625 Z1 - Z17 <= 9.765625e-04
 R52: - 0.8125 Z1 - Z17 <= 0.1650390625
 R53: 0.0625 Z1 - Z17 <= 9.765625e-04
 R54: - 0.53125 Z1 - Z17 <= 0.070556640625
 R55: 0.84375 Z1 - Z17 <= 0.177978515625
 R56: - 0.90625 Z1 - Z17 <= 0.205322265625
 R57: - 0.84375 Z1 - Z17 <= 0.177978515625
 R58: 0.09375 Z1 - Z17 <= 0.002197265625
 R59: - 0.09375 Z1 - Z17 <= 0.002197265625
 R60: 0.46875 Z1 - Z17 <= 0.054931640625
 R61: - Z2 - Z18 <= 0.25
 R62: Z2 - Z18 <= 0.25
 R63: - 0 Z2 - Z18 <= 0
 R64: - 0.5 Z2 - Z18 <= 0.0625
 R65: 0.5 Z2 - Z18 <= 0.0625
 R66: - 0.75 Z2 - Z18 <= 0.140625
 R67: 0.75 Z2 - Z18 <= 0.140625
 R68: - 0.25 Z2 - Z18 <= 0.015625
 R69: 0.25 Z2 - Z18 <= 0.015625
 R70: - 0.625 Z2 - Z18 <= 0.09765625
 R71: - 0.375 Z2 - Z18 <= 0.03515625
 R72: 0.375 Z2 - Z18 <= 0.03515625
 R73: 0.625 Z2 - Z18 <= 0.09765625
 R74: - 0.875 Z2 - Z18 <= 0.19140625
 R75: - 0.125 Z2 - Z18 <= 0.00390625
 R76: 0.875 Z2 - Z18 <= 0.19140625
 R77: 0.125 Z2 - Z18 <= 0.00390625
 R78: - 0.5625 Z2 - Z18 <= 0.0791015625
 R79: 0.4375 Z2 - Z18 <= 0.0478515625
 R80: 0.8125 Z2 - Z18 <= 0.1650390625
 R81: 0.1875 Z2 - Z18 <= 0.0087890625
 R82: - 0.1875 Z2 - Z18 <= 0.0087890625
 R83: - 0.3125 Z2 - Z18 <= 0.0244140625
 R84: - 0.9375 Z2 - Z18 <= 0.2197265625
 R85: 0.5625 Z2 - Z18 <= 0.0791015625
 R86: 0.3125 Z2 - Z18 <= 0.0244140625
 R87: 0.6875 Z2 - Z18 <= 0.1181640625
 R88: 0.9375 Z2 - Z18 <= 0.2197265625
 R89: - 0.4375 Z2 - Z18 <= 0.0478515625
 R90: - 0.6875 Z2 - Z18 <= 0.1181640625
 R91: - 0.0625 Z2 - Z18 <= 9.765625e-04
 R92: - 0.8125 Z2 - Z18 <= 0.1650390625
 R93: 0.0625 Z2 - Z18 <= 9.765625e-04
 R94: - 0.53125 Z2 - Z18 <= 0.070556640625
 R95: 0.84375 Z2 - Z18 <= 0.177978515625
 R96: - 0.90625 Z2 - Z18 <= 0.205322265625
 R97: - 0.84375 Z2 - Z18 <= 0.177978515625
 R98: 0.09375 Z2 - Z18 <= 0.002197265625
 R99: - 0.09375 Z2 - Z18 <= 0.002197265625
 R100: 0.46875 Z2 - Z18 <= 0.054931640625
 R101: 0.1875 Z3 + 0.0625 Z4 - 0.0625 Z5 - 0.1875 Z6 + Z17 <= 0.25
 R102: 0.1875 Z10 + 0.0625 Z11 - 0.0625 Z12 - 0.1875 Z13 + Z18 <= 0.25
 R1702: X0 = 1
 R1742: X1 = 1
Bounds
 -1 <= X0 <= 1
 -1 <= X1 <= 1
 -1 <= Z0 <= 1
 -0.5 <= Z1 <= 0.5
 -0.5 <= Z2 <= 0.5
 Z3 <= 1
 Z4 <= 1
 Z5 <= 1
 Z6 <= 1
 Z10 <= 1
 Z11 <= 1
 Z12 <= 1
 Z13 <= 1
 Z17 <= 0.25
 Z18 <= 0.25
Binaries
 Z7 Z8 Z9 Z14 Z15 Z16
End
